p cnf 36 45
-11 -30 -17 0
21 36 6 0
10 36 -8 0
-34 -15 -9 0
6 -15 26 0
-8 8 -18 0
34 -9 32 0
30 -4 29 0
-1 -2 -3 -4 -5 -6 -7 -8 -9 -10 -11 -12 -13 -14 -15 -16 -17 -18 -19 -20 -21 -22 -23 -24 -25 -26 -27 -28 -29 -30 -31 -32 -33 -34 -35 -36 0
34 27 10 0
-33 -34 -6 0
-16 21 -9 0
-26 -2 21 0
36 32 -4 0
-31 35 15 0
5 14 8 0
9 -12 -16 0
-4 -33 31 0
9 22 3 0
29 31 -12 0
-14 -28 1 0
1 2 3 4 5 6 7 8 9 10 11 12 13 14 15 16 17 18 19 20 21 22 23 24 25 26 27 28 29 30 31 32 33 34 35 36 0
13 34 33 0
21 -33 17 0
-19 -4 -13 0
-29 36 25 0
1 4 16 0
-34 -12 33 0
-32 29 31 0
11 -30 35 0
11 -1 7 0
-7 -9 28 0
29 16 5 0
13 -15 -5 0
11 -30 11 0
1 -2 23 0
11 8 26 0
29 14 7 0
-29 -35 6 0
-34 -9 3 0
19 24 -22 0
-17 -6 30 0
24 -6 4 0
30 28 6 0
36 -35 -36 0
